NAME: random-48-21756
TYPE: TSP
COMMENT: size=48 seed=21756
DIMENSION: 98
EDGE_WEIGHT_TYPE: EUC_2D
NODE_COORD_SECTION
+0 92 177
-0 92 177
+1 350 971
-1 383 225
+2 422 259
-2 719 640
+3 486 208
-3 711 240
+4 365 75
-4 413 934
+5 14 937
-5 993 118
+6 737 787
-6 844 946
+7 546 275
-7 144 902
+8 349 148
-8 302 321
+9 463 612
-9 757 320
+10 74 760
-10 974 686
+11 82 313
-11 941 987
+12 13 274
-12 31 397
+13 317 604
-13 56 6
+14 896 913
-14 20 569
+15 225 24
-15 940 964
+16 701 206
-16 482 917
+17 875 560
-17 517 657
+18 944 821
-18 265 96
+19 891 633
-19 451 632
+20 117 695
-20 309 990
+21 669 108
-21 381 470
+22 588 131
-22 897 380
+23 288 390
-23 92 861
+24 941 143
-24 355 925
+25 973 672
-25 20 255
+26 4 556
-26 133 939
+27 595 356
-27 156 123
+28 165 734
-28 742 895
+29 27 328
-29 605 933
+30 147 561
-30 9 637
+31 772 834
-31 40 987
+32 591 796
-32 993 598
+33 302 631
-33 581 231
+34 236 49
-34 498 944
+35 854 341
-35 875 811
+36 72 469
-36 845 341
+37 465 220
-37 367 965
+38 393 949
-38 809 158
+39 352 864
-39 152 519
+40 364 381
-40 185 733
+41 729 512
-41 454 481
+42 85 582
-42 318 468
+43 193 312
-43 802 684
+44 65 671
-44 402 397
+45 272 572
-45 79 441
+46 213 806
-46 81 282
+47 661 504
-47 820 279
+48 546 198
-48 232 472
PRECEDENCE_SECTION
+0 -0
+1 -1
+2 -2
+3 -3
+4 -4
+5 -5
+6 -6
+7 -7
+8 -8
+9 -9
+10 -10
+11 -11
+12 -12
+13 -13
+14 -14
+15 -15
+16 -16
+17 -17
+18 -18
+19 -19
+20 -20
+21 -21
+22 -22
+23 -23
+24 -24
+25 -25
+26 -26
+27 -27
+28 -28
+29 -29
+30 -30
+31 -31
+32 -32
+33 -33
+34 -34
+35 -35
+36 -36
+37 -37
+38 -38
+39 -39
+40 -40
+41 -41
+42 -42
+43 -43
+44 -44
+45 -45
+46 -46
+47 -47
+48 -48
EOF
